Instance: Data/Instances_txt/inst_100_10_3.txt
SetUpTime: 6.016993999481201

Gurobi 10.0.1 (mac64[x86]) logging started Di  1 Aug 16:44:25 2023

Set parameter LogFile to value "Output/MILP_RELAXED_inst_100_10_3_2023-08-01_16-28-50.txt"
Set parameter TimeLimit to value 2700

Gurobi 10.0.1 (mac64[x86]) logging started Di  1 Aug 16:44:25 2023

Set parameter LogFile to value "Output/MILP_RELAXED_inst_100_10_3_2023-08-01_16-28-50.txt"
Gurobi Optimizer version 10.0.1 build v10.0.1rc0 (mac64[x86])

CPU model: Intel(R) Core(TM) i5-1038NG7 CPU @ 2.00GHz
Thread count: 4 physical cores, 8 logical processors, using up to 8 threads

Optimize a model with 201 rows, 10593 columns and 41775 nonzeros
Model fingerprint: 0xb9e729cd
Coefficient statistics:
  Matrix range     [1e+00, 1e+00]
  Objective range  [2e+00, 9e+03]
  Bounds range     [1e+00, 1e+00]
  RHS range        [1e+00, 1e+00]
Presolve removed 13 rows and 11 columns
Presolve time: 0.02s
Presolved: 188 rows, 10582 columns, 41315 nonzeros

Concurrent LP optimizer: dual simplex and barrier
Showing barrier log only...

Ordering time: 0.00s

Barrier statistics:
 AA' NZ     : 8.404e+03
 Factor NZ  : 1.474e+04 (roughly 4 MB of memory)
 Factor Ops : 1.522e+06 (less than 1 second per iteration)
 Threads    : 1

                  Objective                Residual
Iter       Primal          Dual         Primal    Dual     Compl     Time
   0   5.00871088e+06  1.75310000e+04  1.64e+02 0.00e+00  1.37e+00     0s
   1   7.15640301e+05 -2.70387379e+04  1.95e+01 2.31e-14  1.84e-01     0s
   2   2.04857515e+05  2.43681580e+04  2.58e+00 1.95e-14  3.71e-02     0s
   3   1.35172172e+05  8.11909969e+04  3.66e-01 2.49e-14  9.97e-03     0s
   4   1.17483060e+05  1.01635496e+05  4.58e-02 2.13e-14  2.88e-03     0s
   5   1.15411204e+05  1.04238188e+05  3.24e-02 2.22e-14  2.03e-03     0s
   6   1.12242681e+05  1.05931506e+05  1.78e-02 2.49e-14  1.15e-03     0s
   7   1.08662667e+05  1.06440026e+05  5.88e-03 2.49e-14  4.05e-04     0s
   8   1.07514563e+05  1.06594707e+05  2.27e-03 2.49e-14  1.68e-04     0s
   9   1.06966344e+05  1.06662865e+05  6.68e-04 2.49e-14  5.55e-05     0s
  10   1.06713673e+05  1.06691983e+05  2.02e-05 2.84e-14  3.99e-06     0s
  11   1.06698556e+05  1.06698185e+05  5.11e-08 3.20e-14  6.84e-08     0s
  12   1.06698250e+05  1.06698250e+05  8.13e-11 3.55e-14  9.00e-11     0s

Barrier solved model in 12 iterations and 0.05 seconds (0.05 work units)
Optimal objective 1.06698250e+05

Crossover log...

     109 DPushes remaining with DInf 0.0000000e+00                 0s
       0 DPushes remaining with DInf 0.0000000e+00                 0s

      46 PPushes remaining with PInf 0.0000000e+00                 0s
       0 PPushes remaining with PInf 0.0000000e+00                 0s

  Push phase complete: Pinf 0.0000000e+00, Dinf 2.7933211e-13      0s


Solved with barrier
Iteration    Objective       Primal Inf.    Dual Inf.      Time
     158    1.0669825e+05   0.000000e+00   0.000000e+00      0s

Solved in 158 iterations and 0.06 seconds (0.05 work units)
Optimal objective  1.066982500e+05

User-callback calls 275, time in user-callback 0.00 sec

=========================

OUTPUT STATISTICS
Relaxed: true
Time since start: 6.275783061981201
SetUpTime: 6.016993999481201
Objective value: 106698.25
Number of variables: 10593
Solving time: 0.25834012031555176
